3101291
189,172,213,148,152,23,218,1,178,157,223,68,34,215,29,42,76,187,228,88,109,217,150,171,186,31,8,195,143,61,119,201,191,197,227,51,164,145,230,103,121,222,41,219,66,190,99,69,48,60,144,4,224,153,142,129,2,160,110,19,173,111,212,14,36,140,207,85,37,166,26,96,221,149,38,176,93,86,188,22,50,184,21,33,12,90,170,146,75,17,46,15,214,30,165,132,64,181,52,158,92,202,100,54,128,106,77,58,225,91,59,78,159,194,131,25,95,32,162,63,125,211,47,199,136,206,13,72,167,80,82,70,10,120,28,55,108,161,89,180,216,105,53,56,18,175,141,24,104,192,71,39,49,127,163,209,35,116,139,124,79,138,45,200,168,123,114,107,81,203,44,185,97,198,193,84,204,73,179,101,182,122,7,94,229,83,74,5,177,156,6,196,62,27,133,151,208,126,11,102,87,205,40,154,118,147,67,3,210,117,183,113,65,220,155,112,169,130,16,174,115,20,137,43,135,98,134,57,9,226